sat
(:max-memory         18.05
 :memory             18.05
 :nlsat-propagations 9
 :nlsat-stages       4
 :num-allocs         24004
 :rlimit-count       2983
 :time               0.00
 :total-time         0.01)
